NAME : EXPLORATION
TYPE : ATSP
DIMENSION : 10
EDGE_WEIGHT_TYPE: EXPLICIT
EDGE_WEIGHT_FORMAT: FULL_MATRIX
EDGE_WEIGHT_SECTION
0 7352 3088 5063 11137 3968 6814 14675 10332 0 
7352 0 9156 3679 3846 6618 10820 7685 13151 0 
3088 9156 0 7773 12629 7057 3963 15691 7555 0 
5063 3679 7773 0 7325 2994 10652 11291 13700 0 
11137 3846 12629 7325 0 10319 13572 4018 15224 0 
3968 6618 7057 2994 10319 0 10673 14274 14093 0 
6814 10820 3963 10652 13572 10673 0 15815 3592 0 
14675 7685 15691 11291 4018 14274 15815 0 16684 0 
10332 13151 7555 13700 15224 14093 3592 16684 0 0 
10582 4585 11290 8168 3243 10960 11362 4480 12489 0 
